[[69, 67, 68, 76, 77, 78, 79, 88, 89, 90, 99, 98, 97, 96, 87], [95, 86, 85, 84, 94, 93, 92, 91, 83, 82, 73], [75, 74, 64, 65, 66, 56, 57, 58, 59, 49, 50, 40, 39, 48, 47], [55, 46, 38, 37, 28, 29, 30, 31, 21, 22], [19, 20, 10, 2, 11, 3, 12, 13, 4, 14], [5, 6, 7, 8, 9, 16, 15, 23, 24, 25, 17, 18, 27, 26, 35, 36, 44], [34, 43, 33, 32, 41, 42, 45, 54, 53, 52, 51, 60, 61, 62, 63, 72, 81, 80, 71, 70]]